(set-info :smt-lib-version 2.6)
(set-logic UF)
(set-info :source |Benchmarks from the paper: "Extending Sledgehammer with SMT Solvers" by Jasmin Blanchette, Sascha Bohme, and Lawrence C. Paulson, CADE 2011.  Translated to SMT2 by Andrew Reynolds and Morgan Deters.|)
(set-info :category "industrial")
(set-info :status sat)
(declare-sort S1 0)
(declare-sort S2 0)
(declare-sort S3 0)
(declare-sort S4 0)
(declare-sort S5 0)
(declare-sort S6 0)
(declare-sort S7 0)
(declare-sort S8 0)
(declare-sort S9 0)
(declare-sort S10 0)
(declare-sort S11 0)
(declare-sort S12 0)
(declare-sort S13 0)
(declare-sort S14 0)
(declare-sort S15 0)
(declare-sort S16 0)
(declare-sort S17 0)
(declare-sort S18 0)
(declare-sort S19 0)
(declare-sort S20 0)
(declare-sort S21 0)
(declare-sort S22 0)
(declare-sort S23 0)
(declare-fun f1 () S1)
(declare-fun f2 () S1)
(declare-fun f3 (S3 S2) S1)
(declare-fun f4 () S3)
(declare-fun f5 (S2 S3) S1)
(declare-fun f6 (S4) S3)
(declare-fun f7 () S4)
(declare-fun f8 (S5 S6 S6) S3)
(declare-fun f9 () S5)
(declare-fun f10 () S6)
(declare-fun f11 () S3)
(declare-fun f12 () S5)
(declare-fun f13 () S3)
(declare-fun f14 () S5)
(declare-fun f15 () S6)
(declare-fun f16 (S5 S7) S8)
(declare-fun f17 (S1 S5) S8)
(declare-fun f18 () S5)
(declare-fun f19 () S5)
(declare-fun f20 (S9 S7) S1)
(declare-fun f21 () S9)
(declare-fun f22 (S11 S7) S7)
(declare-fun f23 (S12 S7) S11)
(declare-fun f24 () S12)
(declare-fun f25 (S13 S10) S7)
(declare-fun f26 (S14 S10) S13)
(declare-fun f27 () S14)
(declare-fun f28 () S10)
(declare-fun f29 (S15 S16) S1)
(declare-fun f30 (S7 S10) S15)
(declare-fun f31 (S17) S16)
(declare-fun f32 (S4) S17)
(declare-fun f33 (S8 S10) S1)
(declare-fun f34 (S7 S7) S1)
(declare-fun f35 () S7)
(declare-fun f36 (S6 S7) S5)
(declare-fun f37 (S2 S10) S1)
(declare-fun f38 () S2)
(declare-fun f39 (S18 S10) S10)
(declare-fun f40 (S19 S7) S18)
(declare-fun f41 () S19)
(declare-fun f42 () S12)
(declare-fun f43 () S7)
(declare-fun f44 () S12)
(declare-fun f45 () S7)
(declare-fun f46 (S20 S9) S7)
(declare-fun f47 () S20)
(declare-fun f48 (S9) S9)
(declare-fun f49 () S13)
(declare-fun f50 (S21 S4) S10)
(declare-fun f51 (S22 S23) S21)
(declare-fun f52 () S22)
(declare-fun f53 () S23)
(declare-fun f54 (S3 S4) S4)
(declare-fun f55 () S10)
(declare-fun f56 (S3) S3)
(declare-fun f57 (S3 S3) S3)
(assert (not (= f1 f2)))
(assert (forall ((?v0 S2)) (= (= (f3 f4 ?v0) f1) (and (= (f5 ?v0 (f6 f7)) f1) (= (f3 (f8 f9 f10 f10) ?v0) f1)))))
(assert (forall ((?v0 S2)) (= (= (f3 f11 ?v0) f1) (and (= (f5 ?v0 (f6 f7)) f1) (= (f3 (f8 f12 f10 f10) ?v0) f1)))))
(assert (forall ((?v0 S2)) (= (= (f3 f13 ?v0) f1) (and (= (f5 ?v0 (f6 f7)) f1) (= (f3 (f8 f14 f15 f15) ?v0) f1)))))
(assert (forall ((?v0 S7)) (= (f16 f9 ?v0) (f17 f2 f18))))
(assert (forall ((?v0 S7)) (= (f16 f12 ?v0) (f17 f2 f19))))
(assert (forall ((?v0 S7)) (= (= (f20 f21 ?v0) f1) (exists ((?v1 S10) (?v2 S7)) (and (= ?v0 (f22 (f23 f24 ?v2) (f25 (f26 f27 ?v1) f28))) (= (f29 (f30 ?v2 ?v1) (f31 (f32 f7))) f1))))))
(assert (forall ((?v0 S7) (?v1 S10)) (= (= (f33 (f16 f18 ?v0) ?v1) f1) (= (f34 ?v0 f35) f1))))
(assert (forall ((?v0 S7) (?v1 S10)) (= (= (f33 (f16 f19 ?v0) ?v1) f1) (= (f34 f35 ?v0) f1))))
(assert (forall ((?v0 S7) (?v1 S7) (?v2 S10)) (= (= (f33 (f16 (f36 f10 ?v0) ?v1) ?v2) f1) false)))
(assert (forall ((?v0 S7) (?v1 S7) (?v2 S10)) (= (= (f33 (f16 (f36 f15 ?v0) ?v1) ?v2) f1) true)))
(assert (forall ((?v0 S7) (?v1 S10)) (= (= (f33 (f16 f14 ?v0) ?v1) f1) false)))
(assert (not (= (f37 f38 (f39 (f40 f41 (f22 (f23 f24 (f22 (f23 f42 f43) (f22 (f23 f44 (f22 (f23 f24 f45) (f46 f47 (f48 f21)))) (f25 f49 (f50 (f51 f52 f53) (f54 (f8 f14 f15 f15) f7)))))) (f25 (f26 f27 f55) f28))) f28)) f1)))
(assert (=> (= (f5 f38 (f56 f11)) f1) (= (f37 f38 (f39 (f40 f41 (f22 (f23 f24 (f22 (f23 f42 f43) (f22 (f23 f44 (f22 (f23 f24 f45) (f46 f47 (f48 f21)))) (f25 f49 (f50 (f51 f52 f53) (f54 (f8 f14 f15 f15) f7)))))) (f25 (f26 f27 f55) f28))) f28)) f1)))
(assert (=> (= (f5 f38 (f56 f4)) f1) (= (f37 f38 (f39 (f40 f41 (f22 (f23 f24 (f22 (f23 f42 f43) (f22 (f23 f44 (f22 (f23 f24 f45) (f46 f47 (f48 f21)))) (f25 f49 (f50 (f51 f52 f53) (f54 (f8 f14 f15 f15) f7)))))) (f25 (f26 f27 f55) f28))) f28)) f1)))
(assert (=> (= (f5 f38 (f56 f13)) f1) (= (f37 f38 (f39 (f40 f41 (f22 (f23 f24 (f22 (f23 f42 f43) (f22 (f23 f44 (f22 (f23 f24 f45) (f46 f47 (f48 f21)))) (f25 f49 (f50 (f51 f52 f53) (f54 (f8 f14 f15 f15) f7)))))) (f25 (f26 f27 f55) f28))) f28)) f1)))
(assert (= (f5 f38 (f6 f7)) f1))
(assert (= (f6 f7) (f57 (f57 (f56 f13) (f56 f11)) (f56 f4))))
(check-sat)
(exit)
